12
92
100
101
113
118
121
121
121
122
181
193
211
211
218
219
219
318
802
811
811
813
831
832
891
911
911
918
1013
1029
1031
1082
1120
1123
1128
1182
1189
1192
1193
1198
1209
1211
1211
1211
1231
1283
1292
1301
1311
1312
1319
1320
1801
1812
1819
1829
1911
1911
1912
1913
2112
2113
2121
2130
2131
2131
2193
2198
2231
2281
2301
2311
2812
2813
3101
3182
3912
8012
8109
8111
8112
8112
8139
8193
8201
8201
8302
8310
8312
8321
8931
9018
9101
9111
9118
9132
9221
9320
9812
9831
